p cnf 30	1052
1	6	19	0
-1	-6	-19	0
1	6	21	0
-1	-6	-21	0
1	6	26	0
-1	-6	-26	0
1	7	11	0
-1	-7	-11	0
1	7	18	0
-1	-7	-18	0
1	7	21	0
-1	-7	-21	0
1	7	26	0
-1	-7	-26	0
1	11	19	0
-1	-11	-19	0
1	11	21	0
-1	-11	-21	0
1	11	26	0
-1	-11	-26	0
1	18	19	0
-1	-18	-19	0
1	18	20	0
-1	-18	-20	0
1	18	21	0
-1	-18	-21	0
1	19	20	0
-1	-19	-20	0
1	19	26	0
-1	-19	-26	0
1	20	26	0
-1	-20	-26	0
2	6	10	0
-2	-6	-10	0
2	6	13	0
-2	-6	-13	0
2	6	19	0
-2	-6	-19	0
2	6	21	0
-2	-6	-21	0
2	6	25	0
-2	-6	-25	0
2	8	10	0
-2	-8	-10	0
2	8	11	0
-2	-8	-11	0
2	10	12	0
-2	-10	-12	0
2	10	19	0
-2	-10	-19	0
2	10	21	0
-2	-10	-21	0
2	10	29	0
-2	-10	-29	0
2	11	12	0
-2	-11	-12	0
2	11	17	0
-2	-11	-17	0
2	11	19	0
-2	-11	-19	0
2	11	21	0
-2	-11	-21	0
2	11	27	0
-2	-11	-27	0
2	12	19	0
-2	-12	-19	0
2	12	21	0
-2	-12	-21	0
2	12	29	0
-2	-12	-29	0
2	13	18	0
-2	-13	-18	0
2	13	19	0
-2	-13	-19	0
2	13	20	0
-2	-13	-20	0
2	13	25	0
-2	-13	-25	0
2	13	29	0
-2	-13	-29	0
2	17	19	0
-2	-17	-19	0
2	17	21	0
-2	-17	-21	0
2	17	25	0
-2	-17	-25	0
2	18	19	0
-2	-18	-19	0
2	18	20	0
-2	-18	-20	0
2	18	21	0
-2	-18	-21	0
2	18	25	0
-2	-18	-25	0
2	18	27	0
-2	-18	-27	0
2	19	20	0
-2	-19	-20	0
2	19	25	0
-2	-19	-25	0
2	19	27	0
-2	-19	-27	0
2	19	29	0
-2	-19	-29	0
2	20	27	0
-2	-20	-27	0
2	20	29	0
-2	-20	-29	0
2	21	27	0
-2	-21	-27	0
2	27	29	0
-2	-27	-29	0
3	4	5	0
-3	-4	-5	0
3	4	7	0
-3	-4	-7	0
3	4	8	0
-3	-4	-8	0
3	4	10	0
-3	-4	-10	0
3	4	11	0
-3	-4	-11	0
3	4	12	0
-3	-4	-12	0
3	4	15	0
-3	-4	-15	0
3	4	20	0
-3	-4	-20	0
3	4	23	0
-3	-4	-23	0
3	4	24	0
-3	-4	-24	0
3	4	25	0
-3	-4	-25	0
3	4	29	0
-3	-4	-29	0
3	5	7	0
-3	-5	-7	0
3	5	8	0
-3	-5	-8	0
3	5	9	0
-3	-5	-9	0
3	5	11	0
-3	-5	-11	0
3	5	15	0
-3	-5	-15	0
3	5	16	0
-3	-5	-16	0
3	5	18	0
-3	-5	-18	0
3	5	20	0
-3	-5	-20	0
3	5	23	0
-3	-5	-23	0
3	6	10	0
-3	-6	-10	0
3	6	13	0
-3	-6	-13	0
3	6	15	0
-3	-6	-15	0
3	6	19	0
-3	-6	-19	0
3	6	21	0
-3	-6	-21	0
3	6	25	0
-3	-6	-25	0
3	7	8	0
-3	-7	-8	0
3	7	9	0
-3	-7	-9	0
3	7	10	0
-3	-7	-10	0
3	7	11	0
-3	-7	-11	0
3	7	12	0
-3	-7	-12	0
3	7	16	0
-3	-7	-16	0
3	7	18	0
-3	-7	-18	0
3	7	21	0
-3	-7	-21	0
3	7	23	0
-3	-7	-23	0
3	7	24	0
-3	-7	-24	0
3	8	9	0
-3	-8	-9	0
3	8	10	0
-3	-8	-10	0
3	8	11	0
-3	-8	-11	0
3	8	15	0
-3	-8	-15	0
3	8	16	0
-3	-8	-16	0
3	8	24	0
-3	-8	-24	0
3	9	10	0
-3	-9	-10	0
3	9	11	0
-3	-9	-11	0
3	9	12	0
-3	-9	-12	0
3	9	13	0
-3	-9	-13	0
3	9	16	0
-3	-9	-16	0
3	9	23	0
-3	-9	-23	0
3	9	24	0
-3	-9	-24	0
3	9	25	0
-3	-9	-25	0
3	9	29	0
-3	-9	-29	0
3	10	12	0
-3	-10	-12	0
3	10	15	0
-3	-10	-15	0
3	10	19	0
-3	-10	-19	0
3	10	21	0
-3	-10	-21	0
3	10	24	0
-3	-10	-24	0
3	10	29	0
-3	-10	-29	0
3	11	12	0
-3	-11	-12	0
3	11	17	0
-3	-11	-17	0
3	11	19	0
-3	-11	-19	0
3	11	21	0
-3	-11	-21	0
3	11	23	0
-3	-11	-23	0
3	11	24	0
-3	-11	-24	0
3	12	19	0
-3	-12	-19	0
3	12	21	0
-3	-12	-21	0
3	12	23	0
-3	-12	-23	0
3	12	29	0
-3	-12	-29	0
3	13	15	0
-3	-13	-15	0
3	13	18	0
-3	-13	-18	0
3	13	19	0
-3	-13	-19	0
3	13	20	0
-3	-13	-20	0
3	13	23	0
-3	-13	-23	0
3	13	24	0
-3	-13	-24	0
3	13	25	0
-3	-13	-25	0
3	13	29	0
-3	-13	-29	0
3	15	20	0
-3	-15	-20	0
3	15	25	0
-3	-15	-25	0
3	15	29	0
-3	-15	-29	0
3	16	19	0
-3	-16	-19	0
3	16	21	0
-3	-16	-21	0
3	16	23	0
-3	-16	-23	0
3	16	25	0
-3	-16	-25	0
3	17	19	0
-3	-17	-19	0
3	17	21	0
-3	-17	-21	0
3	17	23	0
-3	-17	-23	0
3	17	24	0
-3	-17	-24	0
3	17	25	0
-3	-17	-25	0
3	18	19	0
-3	-18	-19	0
3	18	20	0
-3	-18	-20	0
3	18	21	0
-3	-18	-21	0
3	18	23	0
-3	-18	-23	0
3	18	25	0
-3	-18	-25	0
3	19	20	0
-3	-19	-20	0
3	19	24	0
-3	-19	-24	0
3	19	25	0
-3	-19	-25	0
3	19	29	0
-3	-19	-29	0
3	20	29	0
-3	-20	-29	0
3	21	23	0
-3	-21	-23	0
3	21	24	0
-3	-21	-24	0
3	24	29	0
-3	-24	-29	0
4	5	7	0
-4	-5	-7	0
4	5	8	0
-4	-5	-8	0
4	5	11	0
-4	-5	-11	0
4	5	15	0
-4	-5	-15	0
4	5	20	0
-4	-5	-20	0
4	5	23	0
-4	-5	-23	0
4	5	26	0
-4	-5	-26	0
4	5	27	0
-4	-5	-27	0
4	5	28	0
-4	-5	-28	0
4	7	8	0
-4	-7	-8	0
4	7	10	0
-4	-7	-10	0
4	7	11	0
-4	-7	-11	0
4	7	12	0
-4	-7	-12	0
4	7	14	0
-4	-7	-14	0
4	7	22	0
-4	-7	-22	0
4	7	23	0
-4	-7	-23	0
4	7	24	0
-4	-7	-24	0
4	7	26	0
-4	-7	-26	0
4	8	10	0
-4	-8	-10	0
4	8	11	0
-4	-8	-11	0
4	8	14	0
-4	-8	-14	0
4	8	15	0
-4	-8	-15	0
4	8	24	0
-4	-8	-24	0
4	8	26	0
-4	-8	-26	0
4	8	28	0
-4	-8	-28	0
4	10	12	0
-4	-10	-12	0
4	10	15	0
-4	-10	-15	0
4	10	22	0
-4	-10	-22	0
4	10	24	0
-4	-10	-24	0
4	10	26	0
-4	-10	-26	0
4	10	28	0
-4	-10	-28	0
4	10	29	0
-4	-10	-29	0
4	11	12	0
-4	-11	-12	0
4	11	14	0
-4	-11	-14	0
4	11	23	0
-4	-11	-23	0
4	11	24	0
-4	-11	-24	0
4	11	26	0
-4	-11	-26	0
4	11	27	0
-4	-11	-27	0
4	12	23	0
-4	-12	-23	0
4	12	26	0
-4	-12	-26	0
4	12	29	0
-4	-12	-29	0
4	14	15	0
-4	-14	-15	0
4	14	22	0
-4	-14	-22	0
4	14	24	0
-4	-14	-24	0
4	14	25	0
-4	-14	-25	0
4	14	26	0
-4	-14	-26	0
4	14	27	0
-4	-14	-27	0
4	14	28	0
-4	-14	-28	0
4	14	29	0
-4	-14	-29	0
4	15	20	0
-4	-15	-20	0
4	15	25	0
-4	-15	-25	0
4	15	27	0
-4	-15	-27	0
4	15	29	0
-4	-15	-29	0
4	20	26	0
-4	-20	-26	0
4	20	27	0
-4	-20	-27	0
4	20	28	0
-4	-20	-28	0
4	20	29	0
-4	-20	-29	0
4	22	24	0
-4	-22	-24	0
4	22	28	0
-4	-22	-28	0
4	23	26	0
-4	-23	-26	0
4	23	27	0
-4	-23	-27	0
4	24	26	0
-4	-24	-26	0
4	24	27	0
-4	-24	-27	0
4	24	29	0
-4	-24	-29	0
4	25	26	0
-4	-25	-26	0
4	26	27	0
-4	-26	-27	0
4	26	28	0
-4	-26	-28	0
4	26	29	0
-4	-26	-29	0
4	27	29	0
-4	-27	-29	0
5	7	8	0
-5	-7	-8	0
5	7	9	0
-5	-7	-9	0
5	7	11	0
-5	-7	-11	0
5	7	16	0
-5	-7	-16	0
5	7	18	0
-5	-7	-18	0
5	7	23	0
-5	-7	-23	0
5	7	26	0
-5	-7	-26	0
5	8	9	0
-5	-8	-9	0
5	8	11	0
-5	-8	-11	0
5	8	15	0
-5	-8	-15	0
5	8	16	0
-5	-8	-16	0
5	8	26	0
-5	-8	-26	0
5	8	28	0
-5	-8	-28	0
5	9	11	0
-5	-9	-11	0
5	9	16	0
-5	-9	-16	0
5	9	23	0
-5	-9	-23	0
5	9	27	0
-5	-9	-27	0
5	11	23	0
-5	-11	-23	0
5	11	26	0
-5	-11	-26	0
5	11	27	0
-5	-11	-27	0
5	15	20	0
-5	-15	-20	0
5	15	27	0
-5	-15	-27	0
5	16	23	0
-5	-16	-23	0
5	16	27	0
-5	-16	-27	0
5	18	20	0
-5	-18	-20	0
5	18	23	0
-5	-18	-23	0
5	18	27	0
-5	-18	-27	0
5	18	28	0
-5	-18	-28	0
5	20	26	0
-5	-20	-26	0
5	20	27	0
-5	-20	-27	0
5	20	28	0
-5	-20	-28	0
5	23	26	0
-5	-23	-26	0
5	23	27	0
-5	-23	-27	0
5	26	27	0
-5	-26	-27	0
5	26	28	0
-5	-26	-28	0
6	10	15	0
-6	-10	-15	0
6	10	19	0
-6	-10	-19	0
6	10	21	0
-6	-10	-21	0
6	10	26	0
-6	-10	-26	0
6	10	28	0
-6	-10	-28	0
6	13	15	0
-6	-13	-15	0
6	13	19	0
-6	-13	-19	0
6	13	25	0
-6	-13	-25	0
6	13	26	0
-6	-13	-26	0
6	13	28	0
-6	-13	-28	0
6	14	15	0
-6	-14	-15	0
6	14	19	0
-6	-14	-19	0
6	14	21	0
-6	-14	-21	0
6	14	25	0
-6	-14	-25	0
6	14	26	0
-6	-14	-26	0
6	14	28	0
-6	-14	-28	0
6	15	25	0
-6	-15	-25	0
6	19	25	0
-6	-19	-25	0
6	19	26	0
-6	-19	-26	0
6	19	28	0
-6	-19	-28	0
6	21	28	0
-6	-21	-28	0
6	25	26	0
-6	-25	-26	0
6	26	28	0
-6	-26	-28	0
7	8	9	0
-7	-8	-9	0
7	8	10	0
-7	-8	-10	0
7	8	11	0
-7	-8	-11	0
7	8	14	0
-7	-8	-14	0
7	8	16	0
-7	-8	-16	0
7	8	24	0
-7	-8	-24	0
7	8	26	0
-7	-8	-26	0
7	9	10	0
-7	-9	-10	0
7	9	11	0
-7	-9	-11	0
7	9	12	0
-7	-9	-12	0
7	9	14	0
-7	-9	-14	0
7	9	16	0
-7	-9	-16	0
7	9	22	0
-7	-9	-22	0
7	9	23	0
-7	-9	-23	0
7	9	24	0
-7	-9	-24	0
7	10	12	0
-7	-10	-12	0
7	10	21	0
-7	-10	-21	0
7	10	22	0
-7	-10	-22	0
7	10	24	0
-7	-10	-24	0
7	10	26	0
-7	-10	-26	0
7	11	12	0
-7	-11	-12	0
7	11	14	0
-7	-11	-14	0
7	11	21	0
-7	-11	-21	0
7	11	23	0
-7	-11	-23	0
7	11	24	0
-7	-11	-24	0
7	11	26	0
-7	-11	-26	0
7	12	21	0
-7	-12	-21	0
7	12	23	0
-7	-12	-23	0
7	12	26	0
-7	-12	-26	0
7	14	18	0
-7	-14	-18	0
7	14	21	0
-7	-14	-21	0
7	14	22	0
-7	-14	-22	0
7	14	24	0
-7	-14	-24	0
7	14	26	0
-7	-14	-26	0
7	16	21	0
-7	-16	-21	0
7	16	22	0
-7	-16	-22	0
7	16	23	0
-7	-16	-23	0
7	18	21	0
-7	-18	-21	0
7	18	23	0
-7	-18	-23	0
7	21	23	0
-7	-21	-23	0
7	21	24	0
-7	-21	-24	0
7	22	24	0
-7	-22	-24	0
7	23	26	0
-7	-23	-26	0
7	24	26	0
-7	-24	-26	0
8	9	10	0
-8	-9	-10	0
8	9	11	0
-8	-9	-11	0
8	9	14	0
-8	-9	-14	0
8	9	16	0
-8	-9	-16	0
8	9	24	0
-8	-9	-24	0
8	10	15	0
-8	-10	-15	0
8	10	24	0
-8	-10	-24	0
8	10	26	0
-8	-10	-26	0
8	10	28	0
-8	-10	-28	0
8	11	14	0
-8	-11	-14	0
8	11	24	0
-8	-11	-24	0
8	11	26	0
-8	-11	-26	0
8	14	15	0
-8	-14	-15	0
8	14	24	0
-8	-14	-24	0
8	14	26	0
-8	-14	-26	0
8	14	28	0
-8	-14	-28	0
8	24	26	0
-8	-24	-26	0
8	26	28	0
-8	-26	-28	0
9	10	12	0
-9	-10	-12	0
9	10	22	0
-9	-10	-22	0
9	10	24	0
-9	-10	-24	0
9	10	29	0
-9	-10	-29	0
9	11	12	0
-9	-11	-12	0
9	11	14	0
-9	-11	-14	0
9	11	23	0
-9	-11	-23	0
9	11	24	0
-9	-11	-24	0
9	11	27	0
-9	-11	-27	0
9	12	23	0
-9	-12	-23	0
9	12	29	0
-9	-12	-29	0
9	13	22	0
-9	-13	-22	0
9	13	23	0
-9	-13	-23	0
9	13	24	0
-9	-13	-24	0
9	13	25	0
-9	-13	-25	0
9	13	29	0
-9	-13	-29	0
9	14	22	0
-9	-14	-22	0
9	14	24	0
-9	-14	-24	0
9	14	25	0
-9	-14	-25	0
9	14	27	0
-9	-14	-27	0
9	14	29	0
-9	-14	-29	0
9	16	22	0
-9	-16	-22	0
9	16	23	0
-9	-16	-23	0
9	16	25	0
-9	-16	-25	0
9	16	27	0
-9	-16	-27	0
9	22	24	0
-9	-22	-24	0
9	23	27	0
-9	-23	-27	0
9	24	27	0
-9	-24	-27	0
9	24	29	0
-9	-24	-29	0
9	27	29	0
-9	-27	-29	0
10	12	19	0
-10	-12	-19	0
10	12	21	0
-10	-12	-21	0
10	12	26	0
-10	-12	-26	0
10	12	29	0
-10	-12	-29	0
10	15	29	0
-10	-15	-29	0
10	19	24	0
-10	-19	-24	0
10	19	26	0
-10	-19	-26	0
10	19	28	0
-10	-19	-28	0
10	19	29	0
-10	-19	-29	0
10	21	24	0
-10	-21	-24	0
10	21	28	0
-10	-21	-28	0
10	22	24	0
-10	-22	-24	0
10	22	28	0
-10	-22	-28	0
10	24	26	0
-10	-24	-26	0
10	24	29	0
-10	-24	-29	0
10	26	28	0
-10	-26	-28	0
10	26	29	0
-10	-26	-29	0
11	12	19	0
-11	-12	-19	0
11	12	21	0
-11	-12	-21	0
11	12	23	0
-11	-12	-23	0
11	12	26	0
-11	-12	-26	0
11	14	17	0
-11	-14	-17	0
11	14	19	0
-11	-14	-19	0
11	14	21	0
-11	-14	-21	0
11	14	24	0
-11	-14	-24	0
11	14	26	0
-11	-14	-26	0
11	14	27	0
-11	-14	-27	0
11	17	19	0
-11	-17	-19	0
11	17	21	0
-11	-17	-21	0
11	17	23	0
-11	-17	-23	0
11	17	24	0
-11	-17	-24	0
11	19	24	0
-11	-19	-24	0
11	19	26	0
-11	-19	-26	0
11	19	27	0
-11	-19	-27	0
11	21	23	0
-11	-21	-23	0
11	21	24	0
-11	-21	-24	0
11	21	27	0
-11	-21	-27	0
11	23	26	0
-11	-23	-26	0
11	23	27	0
-11	-23	-27	0
11	24	26	0
-11	-24	-26	0
11	24	27	0
-11	-24	-27	0
11	26	27	0
-11	-26	-27	0
12	19	26	0
-12	-19	-26	0
12	19	29	0
-12	-19	-29	0
12	21	23	0
-12	-21	-23	0
12	23	26	0
-12	-23	-26	0
12	26	29	0
-12	-26	-29	0
13	15	20	0
-13	-15	-20	0
13	15	25	0
-13	-15	-25	0
13	15	29	0
-13	-15	-29	0
13	18	19	0
-13	-18	-19	0
13	18	20	0
-13	-18	-20	0
13	18	23	0
-13	-18	-23	0
13	18	25	0
-13	-18	-25	0
13	18	28	0
-13	-18	-28	0
13	19	20	0
-13	-19	-20	0
13	19	24	0
-13	-19	-24	0
13	19	25	0
-13	-19	-25	0
13	19	26	0
-13	-19	-26	0
13	19	28	0
-13	-19	-28	0
13	19	29	0
-13	-19	-29	0
13	20	26	0
-13	-20	-26	0
13	20	28	0
-13	-20	-28	0
13	20	29	0
-13	-20	-29	0
13	22	24	0
-13	-22	-24	0
13	22	28	0
-13	-22	-28	0
13	23	26	0
-13	-23	-26	0
13	24	26	0
-13	-24	-26	0
13	24	29	0
-13	-24	-29	0
13	25	26	0
-13	-25	-26	0
13	26	28	0
-13	-26	-28	0
13	26	29	0
-13	-26	-29	0
14	15	25	0
-14	-15	-25	0
14	15	27	0
-14	-15	-27	0
14	15	29	0
-14	-15	-29	0
14	17	19	0
-14	-17	-19	0
14	17	21	0
-14	-17	-21	0
14	17	22	0
-14	-17	-22	0
14	17	24	0
-14	-17	-24	0
14	17	25	0
-14	-17	-25	0
14	18	19	0
-14	-18	-19	0
14	18	21	0
-14	-18	-21	0
14	18	25	0
-14	-18	-25	0
14	18	27	0
-14	-18	-27	0
14	18	28	0
-14	-18	-28	0
14	19	24	0
-14	-19	-24	0
14	19	25	0
-14	-19	-25	0
14	19	26	0
-14	-19	-26	0
14	19	27	0
-14	-19	-27	0
14	19	28	0
-14	-19	-28	0
14	19	29	0
-14	-19	-29	0
14	21	24	0
-14	-21	-24	0
14	21	27	0
-14	-21	-27	0
14	21	28	0
-14	-21	-28	0
14	22	24	0
-14	-22	-24	0
14	22	28	0
-14	-22	-28	0
14	24	26	0
-14	-24	-26	0
14	24	27	0
-14	-24	-27	0
14	24	29	0
-14	-24	-29	0
14	25	26	0
-14	-25	-26	0
14	26	27	0
-14	-26	-27	0
14	26	28	0
-14	-26	-28	0
14	26	29	0
-14	-26	-29	0
14	27	29	0
-14	-27	-29	0
15	20	27	0
-15	-20	-27	0
15	20	29	0
-15	-20	-29	0
15	27	29	0
-15	-27	-29	0
16	19	25	0
-16	-19	-25	0
16	19	27	0
-16	-19	-27	0
16	21	23	0
-16	-21	-23	0
16	21	27	0
-16	-21	-27	0
16	23	27	0
-16	-23	-27	0
17	19	24	0
-17	-19	-24	0
17	19	25	0
-17	-19	-25	0
17	21	23	0
-17	-21	-23	0
17	21	24	0
-17	-21	-24	0
17	22	24	0
-17	-22	-24	0
18	19	20	0
-18	-19	-20	0
18	19	25	0
-18	-19	-25	0
18	19	27	0
-18	-19	-27	0
18	19	28	0
-18	-19	-28	0
18	20	27	0
-18	-20	-27	0
18	20	28	0
-18	-20	-28	0
18	21	23	0
-18	-21	-23	0
18	21	27	0
-18	-21	-27	0
18	21	28	0
-18	-21	-28	0
18	23	27	0
-18	-23	-27	0
19	20	26	0
-19	-20	-26	0
19	20	27	0
-19	-20	-27	0
19	20	28	0
-19	-20	-28	0
19	20	29	0
-19	-20	-29	0
19	24	26	0
-19	-24	-26	0
19	24	27	0
-19	-24	-27	0
19	24	29	0
-19	-24	-29	0
19	25	26	0
-19	-25	-26	0
19	26	27	0
-19	-26	-27	0
19	26	28	0
-19	-26	-28	0
19	26	29	0
-19	-26	-29	0
19	27	29	0
-19	-27	-29	0
20	26	27	0
-20	-26	-27	0
20	26	28	0
-20	-26	-28	0
20	26	29	0
-20	-26	-29	0
20	27	29	0
-20	-27	-29	0
21	23	27	0
-21	-23	-27	0
21	24	27	0
-21	-24	-27	0
23	26	27	0
-23	-26	-27	0
24	26	27	0
-24	-26	-27	0
24	26	29	0
-24	-26	-29	0
24	27	29	0
-24	-27	-29	0
26	27	29	0
-26	-27	-29	0